\ENCODING=ISO-8859-1
\Problem name: IloCplex

Minimize
 obj1: - 6.12480576771201 ap(0)#0 - 13.875194232288 am(0)#1
       - 10.649595800735 ap(1)#2 - 9.35040419926503 am(1)#3
       - 12.742126533396 ap(2)#4 - 7.257873466604 am(2)#5
       - 0.16252696615657 ap(3)#6 - 19.8374730338434 am(3)#7
       - 7.00077184520456 ap(4)#8 - 12.9992281547954 am(4)#9
       - 14.6663880637828 ap(5)#10 - 5.33361193621724 am(5)#11
       - 7.97936765985573 ap(6)#12 - 12.0206323401443 am(6)#13
       - 13.4657712097339 ap(7)#14 - 6.53422879026608 am(7)#15
       + 2.9575836002304 ap(8)#16 - 22.9575836002304 am(8)#17
       - 6.29945062828637 ap(9)#18 - 13.7005493717136 am(9)#19
       - 12.7841297318103 ap(10)#20 - 7.2158702681897 am(10)#21
       + 6.4933565263938 ap(11)#22 - 26.4933565263938 am(11)#23
       - 0.15944444330119 ap(12)#24 - 19.8405555566988 am(12)#25
       - 9.90193910789547 ap(13)#26 - 10.0980608921045 am(13)#27
       - 5.8544660912915 ap(14)#28 - 14.1455339087085 am(14)#29
       - 8.9024223377098 ap(15)#30 - 11.0975776622902 am(15)#31
       - 2.01198705554148 ap(16)#32 - 17.9880129444585 am(16)#33
       - 9.5480064052592 ap(17)#34 - 10.4519935947408 am(17)#35
       - 9.31632312934334 ap(18)#36 - 10.6836768706567 am(18)#37
       - 8.58751607126845 ap(19)#38 - 11.4124839287316 am(19)#39
       - 7.48356285023934 ap(20)#40 - 12.5164371497607 am(20)#41
       - 10.2842600159715 ap(21)#42 - 9.7157399840285 am(21)#43
       - 8.31377419048559 ap(22)#44 - 11.6862258095144 am(22)#45
       - 13.3351829739532 ap(23)#46 - 6.66481702604677 am(23)#47
       + 0.0769326779580997 ap(24)#48 - 20.0769326779581 am(24)#49
       + 2.7813075619656 ap(25)#50 - 22.7813075619656 am(25)#51
       - 10.257252669095 ap(26)#52 - 9.74274733090496 am(26)#53
       - 1.34130796742833 ap(27)#54 - 18.6586920325717 am(27)#55
       - 6.52691514849762 ap(28)#56 - 13.4730848515024 am(28)#57
       - 11.4930301163426 ap(29)#58 - 8.5069698836574 am(29)#59
       - 98338.1669345485 pip(0)#60 + 98338.1669345485 psip(0)#61
       - 98338.1669345485 pim(0)#62 + 98338.1669345485 psim(0)#63
       - 210067.861904958 pip(1)#64 + 210067.861904958 psip(1)#65
       - 210067.861904958 pim(1)#66 + 210067.861904958 psim(1)#67
       - 1138715.08330176 pip(2)#68 + 1138715.08330176 psip(2)#69
       - 1138715.08330176 pim(2)#70 + 1138715.08330176 psim(2)#71
       - 35176.3843474778 pip(3)#72 + 35176.3843474778 psip(3)#73
       - 35176.3843474778 pim(3)#74 + 35176.3843474778 psim(3)#75
       - 34707.2685582368 pip(4)#76 + 34707.2685582368 psip(4)#77
       - 34707.2685582368 pim(4)#78 + 34707.2685582368 psim(4)#79
       - 309612.605059712 pip(5)#80 + 309612.605059712 psip(5)#81
       - 309612.605059712 pim(5)#82 + 309612.605059712 psim(5)#83
       - 0.174207603276244 pip(6)#84 + 0.174207603276244 psip(6)#85
       - 0.174207603276244 pim(6)#86 + 0.174207603276244 psim(6)#87
       - 2.19230480622556 pip(7)#88 + 2.19230480622556 psip(7)#89
       - 2.19230480622556 pim(7)#90 + 2.19230480622556 psim(7)#91
       - 336040.609473724 pip(8)#92 + 336040.609473724 psip(8)#93
       - 336040.609473724 pim(8)#94 + 336040.609473724 psim(8)#95
       - 22388.2190710076 pip(9)#96 + 22388.2190710076 psip(9)#97
       - 22388.2190710076 pim(9)#98 + 22388.2190710076 psim(9)#99
       - 536016.976133606 pip(10)#100 + 536016.976133606 psip(10)#101
       - 536016.976133606 pim(10)#102 + 536016.976133606 psim(10)#103
       - 436513.787557593 pip(11)#104 + 436513.787557593 psip(11)#105
       - 436513.787557593 pim(11)#106 + 436513.787557593 psim(11)#107
       - 928805.018274404 pip(12)#108 + 928805.018274404 psip(12)#109
       - 928805.018274404 pim(12)#110 + 928805.018274404 psim(12)#111
       - 299899.95498663 pip(13)#112 + 299899.95498663 psip(13)#113
       - 299899.95498663 pim(13)#114 + 299899.95498663 psim(13)#115
       - 0.368486206436813 pip(14)#116 + 0.368486206436813 psip(14)#117
       - 0.368486206436813 pim(14)#118 + 0.368486206436813 psim(14)#119
       - 73344.5555986031 pip(15)#120 + 73344.5555986031 psip(15)#121
       - 73344.5555986031 pim(15)#122 + 73344.5555986031 psim(15)#123
       - 844562.200188497 pip(16)#124 + 844562.200188497 psip(16)#125
       - 844562.200188497 pim(16)#126 + 844562.200188497 psim(16)#127
       - 776444.183769329 pip(17)#128 + 776444.183769329 psip(17)#129
       - 776444.183769329 pim(17)#130 + 776444.183769329 psim(17)#131
       - 178747.471969063 pip(18)#132 + 178747.471969063 psip(18)#133
       - 178747.471969063 pim(18)#134 + 178747.471969063 psim(18)#135
       - 96724.6057459246 pip(19)#136 + 96724.6057459246 psip(19)#137
       - 96724.6057459246 pim(19)#138 + 96724.6057459246 psim(19)#139
       - 280585.736703628 pip(20)#140 + 280585.736703628 psip(20)#141
       - 280585.736703628 pim(20)#142 + 280585.736703628 psim(20)#143
       - 0.537563069197278 pip(21)#144 + 0.537563069197278 psip(21)#145
       - 0.537563069197278 pim(21)#146 + 0.537563069197278 psim(21)#147
       - 123277.992790926 pip(22)#148 + 123277.992790926 psip(22)#149
       - 123277.992790926 pim(22)#150 + 123277.992790926 psim(22)#151
       - 54473.4785171492 pip(23)#152 + 54473.4785171492 psip(23)#153
       - 54473.4785171492 pim(23)#154 + 54473.4785171492 psim(23)#155
       - 0.309016934174622 pip(24)#156 + 0.309016934174622 psip(24)#157
       - 0.309016934174622 pim(24)#158 + 0.309016934174622 psim(24)#159
       - 897552.333650173 pip(25)#160 + 897552.333650173 psip(25)#161
       - 897552.333650173 pim(25)#162 + 897552.333650173 psim(25)#163
       - 345716.521716023 pip(26)#164 + 345716.521716023 psip(26)#165
       - 345716.521716023 pim(26)#166 + 345716.521716023 psim(26)#167
       - 45867.0288797256 pip(27)#168 + 45867.0288797256 psip(27)#169
       - 45867.0288797256 pim(27)#170 + 45867.0288797256 psim(27)#171
       - 134775.407672028 pip(28)#172 + 134775.407672028 psip(28)#173
       - 134775.407672028 pim(28)#174 + 134775.407672028 psim(28)#175
       - 24845.7238458689 pip(29)#176 + 24845.7238458689 psip(29)#177
       - 24845.7238458689 pim(29)#178 + 24845.7238458689 psim(29)#179
       - 3 beta1#180 + 3 beta2#181 - phi(0)#182 - phi(1)#183 - phi(2)#184
       - phi(3)#185 - phi(4)#186 - phi(5)#187 - phi(6)#188 - phi(7)#189
       - phi(8)#190 - sigma(0)#191 - sigma(1)#192 - sigma(2)#193 - sigma(3)#194
       - sigma(4)#195 - sigma(5)#196 - sigma(6)#197 - sigma(7)#198
       - sigma(8)#199 - sigma(9)#200 - sigma(10)#201 - sigma(11)#202
       - sigma(12)#203 - sigma(13)#204 - sigma(14)#205 - sigma(15)#206
       - sigma(16)#207 - sigma(17)#208 - sigma(18)#209 - sigma(19)#210
       - sigma(20)#211 - sigma(21)#212 - sigma(22)#213 - sigma(23)#214
       - sigma(24)#215 - sigma(25)#216 - sigma(26)#217 - sigma(27)#218
       - sigma(28)#219 - sigma(29)#220 - ? xi(0)#221
       - 1.29851786143163 xi(1)#222 - 1.34562016814745 xi(2)#223
       - 1.34562016814745 xi(3)#224 - 3.18292255468072 xi(4)#225
       + [ 0.198508161612456 xi(0)#221 ^2
       + 0.397016323224912 xi(0)#221 * xi(1)#222
       + 0.295155054077798 xi(0)#221 * xi(2)#223
       + 0.295155054077798 xi(0)#221 * xi(3)#224
       + 0.202495452699129 xi(0)#221 * xi(4)#225
       + 0.0180064138316834 xi(0)#221 * lambdaL(0)#226
       - 0.0180064138316834 xi(0)#221 * lambdaU(0)#227
       + 0.00349221364177294 xi(0)#221 * lambdaL(1)#228
       - 0.00349221364177294 xi(0)#221 * lambdaU(1)#229
       - 0.0326144427839596 xi(0)#221 * lambdaL(2)#230
       + 0.0326144427839596 xi(0)#221 * lambdaU(2)#231
       + 0.405269306682026 xi(0)#221 * lambdaL(3)#232
       - 0.405269306682026 xi(0)#221 * lambdaU(3)#233
       + 0.0213553047858858 xi(0)#221 * lambdaL(4)#234
       - 0.0213553047858858 xi(0)#221 * lambdaU(4)#235
       - 0.671135428413206 xi(0)#221 * lambdaL(5)#236
       + 0.671135428413206 xi(0)#221 * lambdaU(5)#237
       - 0.00177907931386477 xi(0)#221 * lambdaL(6)#238
       + 0.00177907931386477 xi(0)#221 * lambdaU(6)#239
       - 0.34991203750172 xi(0)#221 * lambdaL(7)#240
       + 0.34991203750172 xi(0)#221 * lambdaU(7)#241
       + 0.234667628172918 xi(0)#221 * lambdaL(8)#242
       - 0.234667628172918 xi(0)#221 * lambdaU(8)#243
       + 0.198508161612456 xi(1)#222 ^2
       + 0.295155054077798 xi(1)#222 * xi(2)#223
       + 0.295155054077798 xi(1)#222 * xi(3)#224
       + 0.202495452699129 xi(1)#222 * xi(4)#225
       + 0.0180064138316834 xi(1)#222 * lambdaL(0)#226
       - 0.0180064138316834 xi(1)#222 * lambdaU(0)#227
       + 0.00349221364177294 xi(1)#222 * lambdaL(1)#228
       - 0.00349221364177294 xi(1)#222 * lambdaU(1)#229
       - 0.0326144427839596 xi(1)#222 * lambdaL(2)#230
       + 0.0326144427839596 xi(1)#222 * lambdaU(2)#231
       + 0.405269306682026 xi(1)#222 * lambdaL(3)#232
       - 0.405269306682026 xi(1)#222 * lambdaU(3)#233
       + 0.0213553047858858 xi(1)#222 * lambdaL(4)#234
       - 0.0213553047858858 xi(1)#222 * lambdaU(4)#235
       - 0.671135428413206 xi(1)#222 * lambdaL(5)#236
       + 0.671135428413206 xi(1)#222 * lambdaU(5)#237
       - 0.00177907931386477 xi(1)#222 * lambdaL(6)#238
       + 0.00177907931386477 xi(1)#222 * lambdaU(6)#239
       - 0.34991203750172 xi(1)#222 * lambdaL(7)#240
       + 0.34991203750172 xi(1)#222 * lambdaU(7)#241
       + 0.234667628172918 xi(1)#222 * lambdaL(8)#242
       - 0.234667628172918 xi(1)#222 * lambdaU(8)#243
       + 0.151579203348207 xi(2)#223 ^2
       + 0.303158406696414 xi(2)#223 * xi(3)#224
       + 0.16309461961754 xi(2)#223 * xi(4)#225
       + 0.239163119539322 xi(2)#223 * lambdaL(0)#226
       - 0.239163119539322 xi(2)#223 * lambdaU(0)#227
       + 0.108703835784622 xi(2)#223 * lambdaL(1)#228
       - 0.108703835784622 xi(2)#223 * lambdaU(1)#229
       - 0.0980495450954478 xi(2)#223 * lambdaL(2)#230
       + 0.0980495450954478 xi(2)#223 * lambdaU(2)#231
       + 0.360642295156798 xi(2)#223 * lambdaL(3)#232
       - 0.360642295156798 xi(2)#223 * lambdaU(3)#233
       + 0.262556812657622 xi(2)#223 * lambdaL(4)#234
       - 0.262556812657622 xi(2)#223 * lambdaU(4)#235
       - 0.414062143025528 xi(2)#223 * lambdaL(5)#236
       + 0.414062143025528 xi(2)#223 * lambdaU(5)#237
       - 0.0564649826050278 xi(2)#223 * lambdaL(6)#238
       + 0.0564649826050278 xi(2)#223 * lambdaU(6)#239
       - 0.384953185169834 xi(2)#223 * lambdaL(7)#240
       + 0.384953185169834 xi(2)#223 * lambdaU(7)#241
       + 0.0765762769306578 xi(2)#223 * lambdaL(8)#242
       - 0.0765762769306578 xi(2)#223 * lambdaU(8)#243
       + 0.151579203348207 xi(3)#224 ^2
       + 0.16309461961754 xi(3)#224 * xi(4)#225
       + 0.239163119539322 xi(3)#224 * lambdaL(0)#226
       - 0.239163119539322 xi(3)#224 * lambdaU(0)#227
       + 0.108703835784622 xi(3)#224 * lambdaL(1)#228
       - 0.108703835784622 xi(3)#224 * lambdaU(1)#229
       - 0.0980495450954478 xi(3)#224 * lambdaL(2)#230
       + 0.0980495450954478 xi(3)#224 * lambdaU(2)#231
       + 0.360642295156798 xi(3)#224 * lambdaL(3)#232
       - 0.360642295156798 xi(3)#224 * lambdaU(3)#233
       + 0.262556812657622 xi(3)#224 * lambdaL(4)#234
       - 0.262556812657622 xi(3)#224 * lambdaU(4)#235
       - 0.414062143025528 xi(3)#224 * lambdaL(5)#236
       + 0.414062143025528 xi(3)#224 * lambdaU(5)#237
       - 0.0564649826050278 xi(3)#224 * lambdaL(6)#238
       + 0.0564649826050278 xi(3)#224 * lambdaU(6)#239
       - 0.384953185169834 xi(3)#224 * lambdaL(7)#240
       + 0.384953185169834 xi(3)#224 * lambdaU(7)#241
       + 0.0765762769306578 xi(3)#224 * lambdaL(8)#242
       - 0.0765762769306578 xi(3)#224 * lambdaU(8)#243
       + 0.0858835952781514 xi(4)#225 ^2
       + 0.0775529989002948 xi(4)#225 * lambdaL(0)#226
       - 0.0775529989002948 xi(4)#225 * lambdaU(0)#227
       + 0.312384500597848 xi(4)#225 * lambdaL(1)#228
       - 0.312384500597848 xi(4)#225 * lambdaU(1)#229
       + 0.0188239500464901 xi(4)#225 * lambdaL(2)#230
       - 0.0188239500464901 xi(4)#225 * lambdaU(2)#231
       + 0.121973642358747 xi(4)#225 * lambdaL(3)#232
       - 0.121973642358747 xi(4)#225 * lambdaU(3)#233
       - 0.0748375820358588 xi(4)#225 * lambdaL(4)#234
       + 0.0748375820358588 xi(4)#225 * lambdaU(4)#235
       - 0.358554485086912 xi(4)#225 * lambdaL(5)#236
       + 0.358554485086912 xi(4)#225 * lambdaU(5)#237
       - 0.128131773477405 xi(4)#225 * lambdaL(6)#238
       + 0.128131773477405 xi(4)#225 * lambdaU(6)#239
       - 0.21477545987156 xi(4)#225 * lambdaL(7)#240
       + 0.21477545987156 xi(4)#225 * lambdaU(7)#241
       + 0.16731914037664 xi(4)#225 * lambdaL(8)#242
       - 0.16731914037664 xi(4)#225 * lambdaU(8)#243 + lambdaL(0)#226 ^2
       - 2 lambdaL(0)#226 * lambdaU(0)#227 + lambdaU(0)#227 ^2
       + lambdaL(1)#228 ^2 - 2 lambdaL(1)#228 * lambdaU(1)#229
       + lambdaU(1)#229 ^2 + lambdaL(2)#230 ^2
       - 2 lambdaL(2)#230 * lambdaU(2)#231 + lambdaU(2)#231 ^2
       + lambdaL(3)#232 ^2 - 2 lambdaL(3)#232 * lambdaU(3)#233
       + lambdaU(3)#233 ^2 + lambdaL(4)#234 ^2
       - 2 lambdaL(4)#234 * lambdaU(4)#235 + lambdaU(4)#235 ^2
       + lambdaL(5)#236 ^2 - 2 lambdaL(5)#236 * lambdaU(5)#237
       + lambdaU(5)#237 ^2 + lambdaL(6)#238 ^2
       - 2 lambdaL(6)#238 * lambdaU(6)#239 + lambdaU(6)#239 ^2
       + lambdaL(7)#240 ^2 - 2 lambdaL(7)#240 * lambdaU(7)#241
       + lambdaU(7)#241 ^2 + lambdaL(8)#242 ^2
       - 2 lambdaL(8)#242 * lambdaU(8)#243 + lambdaU(8)#243 ^2 ] / 2
Subject To
 c1:   ap(0)#0 - am(0)#1 + ap(1)#2 - am(1)#3 + ap(2)#4 - am(2)#5 + ap(3)#6
       - am(3)#7 + ap(4)#8 - am(4)#9 + ap(5)#10 - am(5)#11 + ap(6)#12
       - am(6)#13 + ap(7)#14 - am(7)#15 + ap(8)#16 - am(8)#17 + ap(9)#18
       - am(9)#19 + ap(10)#20 - am(10)#21 + ap(11)#22 - am(11)#23 + ap(12)#24
       - am(12)#25 + ap(13)#26 - am(13)#27 + ap(14)#28 - am(14)#29 + ap(15)#30
       - am(15)#31 + ap(16)#32 - am(16)#33 + ap(17)#34 - am(17)#35 + ap(18)#36
       - am(18)#37 + ap(19)#38 - am(19)#39 + ap(20)#40 - am(20)#41 + ap(21)#42
       - am(21)#43 + ap(22)#44 - am(22)#45 + ap(23)#46 - am(23)#47 + ap(24)#48
       - am(24)#49 + ap(25)#50 - am(25)#51 + ap(26)#52 - am(26)#53 + ap(27)#54
       - am(27)#55 + ap(28)#56 - am(28)#57 + ap(29)#58 - am(29)#59
       + 0.00922032804204974 xi(0)#221 + 0.00922032804204974 xi(1)#222
       + 0.119518419404623 xi(2)#223 + 0.119518419404623 xi(3)#224
       - 0.0785948985851686 xi(4)#225  = 0
 c2:   ap(0)#0 - pip(0)#60 + psip(0)#61 <= 10
 c3:   ap(1)#2 - pip(1)#64 + psip(1)#65 <= 10
 c4:   ap(2)#4 - pip(2)#68 + psip(2)#69 <= 10
 c5:   ap(3)#6 - pip(3)#72 + psip(3)#73 <= 10
 c6:   ap(4)#8 - pip(4)#76 + psip(4)#77 <= 10
 c7:   ap(5)#10 - pip(5)#80 + psip(5)#81 <= 10
 c8:   ap(6)#12 - pip(6)#84 + psip(6)#85 <= 10
 c9:   ap(7)#14 - pip(7)#88 + psip(7)#89 <= 10
 c10:  ap(8)#16 - pip(8)#92 + psip(8)#93 <= 10
 c11:  ap(9)#18 - pip(9)#96 + psip(9)#97 <= 10
 c12:  ap(10)#20 - pip(10)#100 + psip(10)#101 <= 10
 c13:  ap(11)#22 - pip(11)#104 + psip(11)#105 <= 10
 c14:  ap(12)#24 - pip(12)#108 + psip(12)#109 <= 10
 c15:  ap(13)#26 - pip(13)#112 + psip(13)#113 <= 10
 c16:  ap(14)#28 - pip(14)#116 + psip(14)#117 <= 10
 c17:  ap(15)#30 - pip(15)#120 + psip(15)#121 <= 10
 c18:  ap(16)#32 - pip(16)#124 + psip(16)#125 <= 10
 c19:  ap(17)#34 - pip(17)#128 + psip(17)#129 <= 10
 c20:  ap(18)#36 - pip(18)#132 + psip(18)#133 <= 10
 c21:  ap(19)#38 - pip(19)#136 + psip(19)#137 + 0.124852337107158 xi(0)#221
       + 0.124852337107158 xi(1)#222 + 0.136463214563905 xi(2)#223
       + 0.136463214563905 xi(3)#224 + 0.0200132084787776 xi(4)#225 <= 10
 c22:  ap(20)#40 - pip(20)#140 + psip(20)#141 <= 10
 c23:  ap(21)#42 - pip(21)#144 + psip(21)#145 <= 10
 c24:  ap(22)#44 - pip(22)#148 + psip(22)#149 <= 10
 c25:  ap(23)#46 - pip(23)#152 + psip(23)#153 <= 10
 c26:  ap(24)#48 - pip(24)#156 + psip(24)#157 <= 10
 c27:  ap(25)#50 - pip(25)#160 + psip(25)#161 <= 10
 c28:  ap(26)#52 - pip(26)#164 + psip(26)#165 <= 10
 c29:  ap(27)#54 - pip(27)#168 + psip(27)#169 <= 10
 c30:  ap(28)#56 - pip(28)#172 + psip(28)#173 <= 10
 c31:  ap(29)#58 - pip(29)#176 + psip(29)#177 <= 10
 c32:  am(0)#1 - pim(0)#62 + psim(0)#63 <= 10
 c33:  am(1)#3 - pim(1)#66 + psim(1)#67 <= 10
 c34:  am(2)#5 - pim(2)#70 + psim(2)#71 <= 10
 c35:  am(3)#7 - pim(3)#74 + psim(3)#75 <= 10
 c36:  am(4)#9 - pim(4)#78 + psim(4)#79 <= 10
 c37:  am(5)#11 - pim(5)#82 + psim(5)#83 <= 10
 c38:  am(6)#13 - pim(6)#86 + psim(6)#87 <= 10
 c39:  am(7)#15 - pim(7)#90 + psim(7)#91 <= 10
 c40:  am(8)#17 - pim(8)#94 + psim(8)#95 <= 10
 c41:  am(9)#19 - pim(9)#98 + psim(9)#99 <= 10
 c42:  am(10)#21 - pim(10)#102 + psim(10)#103 <= 10
 c43:  am(11)#23 - pim(11)#106 + psim(11)#107 <= 10
 c44:  am(12)#25 - pim(12)#110 + psim(12)#111 <= 10
 c45:  am(13)#27 - pim(13)#114 + psim(13)#115 <= 10
 c46:  am(14)#29 - pim(14)#118 + psim(14)#119 <= 10
 c47:  am(15)#31 - pim(15)#122 + psim(15)#123 <= 10
 c48:  am(16)#33 - pim(16)#126 + psim(16)#127 <= 10
 c49:  am(17)#35 - pim(17)#130 + psim(17)#131 <= 10
 c50:  am(18)#37 - pim(18)#134 + psim(18)#135 <= 10
 c51:  am(19)#39 - pim(19)#138 + psim(19)#139 <= 10
 c52:  am(20)#41 - pim(20)#142 + psim(20)#143 <= 10
 c53:  am(21)#43 - pim(21)#146 + psim(21)#147 <= 10
 c54:  am(22)#45 - pim(22)#150 + psim(22)#151 <= 10
 c55:  am(23)#47 - pim(23)#154 + psim(23)#155 <= 10
 c56:  am(24)#49 - pim(24)#158 + psim(24)#159 <= 10
 c57:  am(25)#51 - pim(25)#162 + psim(25)#163 <= 10
 c58:  am(26)#53 - pim(26)#166 + psim(26)#167 <= 10
 c59:  am(27)#55 - pim(27)#170 + psim(27)#171 <= 10
 c60:  am(28)#57 - pim(28)#174 + psim(28)#175 <= 10
 c61:  am(29)#59 - pim(29)#178 + psim(29)#179 <= 10
 c62:  beta1#180 + phi(0)#182 - xi(2)#223 - xi(3)#224 - 10 lambdaL(0)#226
       - 10 lambdaU(0)#227 >= 0
 c63:  beta1#180 + phi(1)#183 - 0.42100166353331 xi(4)#225 - 10 lambdaL(1)#228
       - 10 lambdaU(1)#229 >= 0
 c64:  beta1#180 + phi(2)#184 + 0.147837996482849 lambdaL(2)#230
       - 14.7838001251221 lambdaU(2)#231 >= 0
 c65:  beta1#180 + phi(3)#185 - xi(0)#221 - xi(1)#222 + xi(4)#225
       - 10 lambdaL(3)#232 - 10 lambdaU(3)#233 >= 0
 c66:  beta1#180 + phi(4)#186 + 0.329661995172501 lambdaL(4)#234
       - 32.9661979675293 lambdaU(4)#235 >= 0
 c67:  beta1#180 + phi(5)#187 - 22.3787994384766 lambdaL(5)#236
       + 0.223787993192673 lambdaU(5)#237 >= 0
 c68:  beta1#180 + phi(6)#188 + 0.0631588995456696 lambdaL(6)#238
       - 6.31588983535767 lambdaU(6)#239 >= 0
 c69:  beta1#180 + phi(7)#189 - xi(0)#221 - xi(1)#222 - xi(2)#223 - xi(3)#224
       - 10 lambdaL(7)#240 - 10 lambdaU(7)#241 >= 0
 c70:  beta1#180 + phi(8)#190 + xi(4)#225 - 10 lambdaL(8)#242
       - 10 lambdaU(8)#243 >= 0
 c71:  98338.1669345485 psip(0)#61 + 98338.1669345485 psim(0)#63 + beta2#181
       - sigma(0)#191 <= 1966763.33869097
 c72:  210067.861904958 psip(1)#65 + 210067.861904958 psim(1)#67 + beta2#181
       - sigma(1)#192 <= 4201357.23809916
 c73:  1138715.08330176 psip(2)#69 + 1138715.08330176 psim(2)#71 + beta2#181
       - sigma(2)#193 <= 22774301.6660352
 c74:  35176.3843474778 psip(3)#73 + 35176.3843474778 psim(3)#75 + beta2#181
       - sigma(3)#194 <= 703527.686949556
 c75:  34707.2685582368 psip(4)#77 + 34707.2685582368 psim(4)#79 + beta2#181
       - sigma(4)#195 <= 694145.371164735
 c76:  309612.605059712 psip(5)#81 + 309612.605059712 psim(5)#83 + beta2#181
       - sigma(5)#196 <= 6192252.10119425
 c77:  0.174207603276244 psip(6)#85 + 0.174207603276244 psim(6)#87 + beta2#181
       - sigma(6)#197 <= 3.48415206552488
 c78:  2.19230480622556 psip(7)#89 + 2.19230480622556 psim(7)#91 + beta2#181
       - sigma(7)#198 <= 43.8460961245113
 c79:  336040.609473724 psip(8)#93 + 336040.609473724 psim(8)#95 + beta2#181
       - sigma(8)#199 <= 6720812.18947447
 c80:  22388.2190710076 psip(9)#97 + 22388.2190710076 psim(9)#99 + beta2#181
       - sigma(9)#200 <= 447764.381420152
 c81:  536016.976133606 psip(10)#101 + 536016.976133606 psim(10)#103
       + beta2#181 - sigma(10)#201 <= 10720339.5226721
 c82:  436513.787557593 psip(11)#105 + 436513.787557593 psim(11)#107
       + beta2#181 - sigma(11)#202 <= 8730275.75115186
 c83:  928805.018274404 psip(12)#109 + 928805.018274404 psim(12)#111
       + beta2#181 - sigma(12)#203 <= 18576100.3654881
 c84:  299899.95498663 psip(13)#113 + 299899.95498663 psim(13)#115 + beta2#181
       - sigma(13)#204 <= 5997999.0997326
 c85:  0.368486206436813 psip(14)#117 + 0.368486206436813 psim(14)#119
       + beta2#181 - sigma(14)#205 <= 7.36972412873627
 c86:  73344.5555986031 psip(15)#121 + 73344.5555986031 psim(15)#123
       + beta2#181 - sigma(15)#206 <= 1466891.11197206
 c87:  844562.200188497 psip(16)#125 + 844562.200188497 psim(16)#127
       + beta2#181 - sigma(16)#207 <= 16891244.0037699
 c88:  776444.183769329 psip(17)#129 + 776444.183769329 psim(17)#131
       + beta2#181 - sigma(17)#208 <= 15528883.6753866
 c89:  178747.471969063 psip(18)#133 + 178747.471969063 psim(18)#135
       + beta2#181 - sigma(18)#209 <= 3574949.43938127
 c90:  96724.6057459246 psip(19)#137 + 96724.6057459246 psim(19)#139
       + beta2#181 - sigma(19)#210 <= 1934492.11491849
 c91:  280585.736703628 psip(20)#141 + 280585.736703628 psim(20)#143
       + beta2#181 - sigma(20)#211 <= 5611714.73407256
 c92:  0.537563069197278 psip(21)#145 + 0.537563069197278 psim(21)#147
       + beta2#181 - sigma(21)#212 <= 10.7512613839456
 c93:  123277.992790926 psip(22)#149 + 123277.992790926 psim(22)#151
       + beta2#181 - sigma(22)#213 <= 2465559.85581852
 c94:  54473.4785171492 psip(23)#153 + 54473.4785171492 psim(23)#155
       + beta2#181 - sigma(23)#214 <= 1089469.57034298
 c95:  0.309016934174622 psip(24)#157 + 0.309016934174622 psim(24)#159
       + beta2#181 - sigma(24)#215 <= 6.18033868349244
 c96:  897552.333650173 psip(25)#161 + 897552.333650173 psim(25)#163
       + beta2#181 - sigma(25)#216 <= 17951046.6730035
 c97:  345716.521716023 psip(26)#165 + 345716.521716023 psim(26)#167
       + beta2#181 - sigma(26)#217 <= 6914330.43432046
 c98:  45867.0288797256 psip(27)#169 + 45867.0288797256 psim(27)#171
       + beta2#181 - sigma(27)#218 <= 917340.577594512
 c99:  134775.407672028 psip(28)#173 + 134775.407672028 psim(28)#175
       + beta2#181 - sigma(28)#219 <= 2695508.15344055
 c100: 24845.7238458689 psip(29)#177 + 24845.7238458689 psim(29)#179
       + beta2#181 - sigma(29)#220 <= 496914.476917378
End
